%% Data: Job Shop 3 jobs × 3 tasks
%% รันด้วย: minizinc 04_jobshop_basic.mzn 04_jobshop_data.dzn

JOB  = J(1..5);   % 3 ออร์เดอร์
TASK = T(1..3);   % 3 สถานีการผลิต

%% d[job, task] = เวลา (นาที)
d = [| 9,  8, 12    % Job 1: S1→S2→S3
     |  7, 15,  5    % Job 2
     | 11,  6, 8    % Job 3
     | 6,  10, 12    % Job 4
     | 18,  9, 7    % Job 5
    |];
